c Result of efficient AIG-to-CNF conversion using package CNF
p cnf 434 1567
-2 3 176 344 366 0
-2 -3 -176 344 366 0
2 -366 0
2 -3 176 0
2 -344 0
2 3 -176 0
3 -397 4 0
-3 397 0
-3 -4 0
-4 5 75 116 151 0
4 -151 0
4 -5 0
4 -116 0
4 -75 0
-5 -6 48 0
-5 18 48 59 0
5 -48 0
5 6 -59 0
5 6 -18 0
-6 397 7 0
6 -397 0
6 -7 0
-7 8 14 0
7 -8 0
7 -14 0
-8 371 9 12 13 0
8 -371 0
8 -13 0
8 -12 0
8 -9 0
-9 382 383 10 11 0
9 -382 0
9 -11 0
9 -10 0
9 -383 0
-10 378 379 384 385 0
10 -385 0
10 -384 0
10 -378 0
10 -379 0
-11 374 375 380 381 0
11 -381 0
11 -380 0
11 -374 0
11 -375 0
-12 370 376 377 0
12 -370 0
12 -377 0
12 -376 0
-13 372 373 0
13 -372 0
13 -373 0
-14 395 15 16 17 0
14 -395 0
14 -17 0
14 -16 0
14 -15 0
-15 394 396 0
15 -394 0
15 -396 0
-16 390 391 392 393 0
16 -393 0
16 -392 0
16 -390 0
16 -391 0
-17 386 387 388 389 0
17 -389 0
17 -388 0
17 -386 0
17 -387 0
-18 419 19 0
-18 418 34 0
-18 19 34 0
-18 418 419 0
18 -418 -19 0
18 -419 -34 0
19 398 -20 0
19 -398 -27 0
-19 -398 27 0
-19 398 20 0
20 399 -21 0
20 -399 -24 0
-20 -399 24 0
-20 399 21 0
21 -400 -23 0
21 400 -22 0
-21 400 22 0
-21 -400 23 0
-22 -401 419 0
-22 401 418 0
22 401 -418 0
22 -401 -419 0
-23 -401 421 0
-23 401 420 0
23 401 -420 0
23 -401 -421 0
24 -400 -26 0
24 400 -25 0
-24 400 25 0
-24 -400 26 0
-25 -401 423 0
-25 401 422 0
25 401 -422 0
25 -401 -423 0
-26 -401 425 0
-26 401 424 0
26 401 -424 0
26 -401 -425 0
27 399 -28 0
27 -399 -31 0
-27 -399 31 0
-27 399 28 0
28 -400 -30 0
28 400 -29 0
-28 400 29 0
-28 -400 30 0
-29 -401 427 0
-29 401 426 0
29 401 -426 0
29 -401 -427 0
-30 -401 429 0
-30 401 428 0
30 401 -428 0
30 -401 -429 0
31 -400 -33 0
31 400 -32 0
-31 400 32 0
-31 -400 33 0
-32 -401 431 0
-32 401 430 0
32 401 -430 0
32 -401 -431 0
-33 -401 433 0
-33 401 432 0
33 401 -432 0
33 -401 -433 0
34 398 -35 0
34 -398 -42 0
-34 -398 42 0
-34 398 35 0
35 399 -36 0
35 -399 -39 0
-35 -399 39 0
-35 399 36 0
36 -400 -38 0
36 400 -37 0
-36 400 37 0
-36 -400 38 0
-37 -401 420 0
-37 401 419 0
37 401 -419 0
37 -401 -420 0
-38 -401 422 0
-38 401 421 0
38 401 -421 0
38 -401 -422 0
39 -400 -41 0
39 400 -40 0
-39 400 40 0
-39 -400 41 0
-40 -401 424 0
-40 401 423 0
40 401 -423 0
40 -401 -424 0
-41 -401 426 0
-41 401 425 0
41 401 -425 0
41 -401 -426 0
42 399 -43 0
42 -399 -46 0
-42 -399 46 0
-42 399 43 0
43 -400 -45 0
43 400 -44 0
-43 400 44 0
-43 -400 45 0
-44 -401 428 0
-44 401 427 0
44 401 -427 0
44 -401 -428 0
-45 -401 430 0
-45 401 429 0
45 401 -429 0
45 -401 -430 0
46 400 -47 0
46 -400 401 -433 0
-46 -400 -401 0
-46 400 47 0
-46 -400 433 0
-47 -401 432 0
-47 401 431 0
47 401 -431 0
47 -401 -432 0
48 -417 7 -49 0
-48 417 0
-48 -7 0
-48 49 0
-49 -397 -398 0
-49 397 50 0
-49 -397 58 0
49 397 -50 0
49 -397 398 -58 0
-50 398 54 0
-50 -398 51 0
50 -398 -51 0
50 398 -54 0
51 399 -52 0
51 -399 -53 0
-51 -399 53 0
-51 399 52 0
52 -400 -44 0
52 400 -41 0
-52 400 41 0
-52 -400 44 0
53 -400 -47 0
53 400 -45 0
-53 400 45 0
-53 -400 47 0
54 399 -55 0
54 -399 -57 0
-54 -399 57 0
-54 399 55 0
55 400 -56 0
55 -400 -37 0
-55 -400 37 0
-55 400 56 0
-56 -401 418 0
-56 401 417 0
56 401 -417 0
56 -401 -418 0
57 -400 -40 0
57 400 -38 0
-57 400 38 0
-57 -400 40 0
58 399 400 401 -433 0
-58 433 0
-58 -401 0
-58 -399 0
-58 -400 0
-59 60 64 0
-59 421 64 0
59 -64 0
59 -421 -60 0
60 398 -61 0
60 -398 -62 0
-60 -398 62 0
-60 398 61 0
61 -399 -52 0
61 399 -57 0
-61 399 57 0
-61 -399 52 0
62 399 -53 0
62 -399 400 -63 0
-62 -399 -400 0
-62 399 53 0
-62 -399 63 0
63 401 -433 0
-63 -401 0
-63 433 0
-64 422 65 0
-64 420 72 0
-64 65 72 0
-64 420 422 0
64 -420 -65 0
64 -422 -72 0
65 398 -66 0
65 -398 -69 0
-65 -398 69 0
-65 398 66 0
66 399 -67 0
66 -399 -68 0
-66 -399 68 0
-66 399 67 0
67 -400 -25 0
67 400 -23 0
-67 400 23 0
-67 -400 25 0
68 -400 -29 0
68 400 -26 0
-68 400 26 0
-68 -400 29 0
69 399 -70 0
69 -399 -71 0
-69 -399 71 0
-69 399 70 0
70 -400 -32 0
70 400 -30 0
-70 400 30 0
-70 -400 32 0
71 400 -401 -433 0
71 400 401 -432 0
-71 -400 0
-71 -401 433 0
-71 401 432 0
72 398 -73 0
72 -398 -74 0
-72 -398 74 0
-72 398 73 0
73 399 -24 0
73 -399 -28 0
-73 -399 28 0
-73 399 24 0
74 399 -31 0
-74 -399 0
-74 31 0
-75 -7 100 0
-75 76 100 106 0
75 -100 0
75 7 -106 0
75 7 -76 0
-76 -397 -398 0
-76 398 77 0
-76 -398 98 0
76 398 -77 0
76 397 -398 -98 0
-77 397 78 0
-77 -397 96 97 0
77 -397 -96 0
77 397 -78 0
77 -397 -97 0
-78 79 86 0
-78 410 86 0
78 -86 0
78 -410 -79 0
79 399 -80 0
79 -399 -83 0
-79 -399 83 0
-79 399 80 0
80 -400 -82 0
80 400 -81 0
-80 400 81 0
-80 -400 82 0
-81 -401 411 0
-81 401 410 0
81 401 -410 0
81 -401 -411 0
-82 -401 413 0
-82 401 412 0
82 401 -412 0
82 -401 -413 0
83 -400 -85 0
83 400 -84 0
-83 400 84 0
-83 -400 85 0
-84 -401 415 0
-84 401 414 0
84 401 -414 0
84 -401 -415 0
-85 -401 417 0
-85 401 416 0
85 401 -416 0
85 -401 -417 0
-86 87 90 0
-86 411 412 0
-86 412 90 0
-86 411 87 0
86 -412 -87 0
86 -411 -90 0
87 399 -88 0
87 -399 -89 0
-87 -399 89 0
-87 399 88 0
88 -400 -84 0
88 400 -82 0
-88 400 82 0
-88 -400 84 0
89 400 -85 0
89 -400 -22 0
-89 -400 22 0
-89 400 85 0
90 399 -91 0
90 -399 -94 0
-90 -399 94 0
-90 399 91 0
91 -400 -93 0
91 400 -92 0
-91 400 92 0
-91 -400 93 0
-92 -401 412 0
-92 401 411 0
92 401 -411 0
92 -401 -412 0
-93 -401 414 0
-93 401 413 0
93 401 -413 0
93 -401 -414 0
94 400 -95 0
94 -400 -56 0
-94 -400 56 0
-94 400 95 0
-95 -401 416 0
-95 401 415 0
95 401 -415 0
95 -401 -416 0
96 -411 -42 0
-96 411 0
-96 42 0
-97 412 27 0
-97 410 69 0
-97 27 69 0
-97 410 412 0
97 -410 -27 0
97 -412 -69 0
-98 35 99 0
-98 411 99 0
98 -99 0
98 -411 -35 0
-99 412 20 0
-99 410 66 0
-99 20 66 0
-99 410 412 0
99 -410 -20 0
99 -412 -66 0
100 397 -101 -105 0
100 -397 -104 -105 0
-100 105 0
-100 -397 104 0
-100 397 101 0
101 -398 -61 0
101 398 -102 0
-101 398 102 0
-101 -398 61 0
102 -399 -55 0
102 399 -103 0
-102 399 103 0
-102 -399 55 0
103 -400 -95 0
103 400 -93 0
-103 400 93 0
-103 -400 95 0
104 398 -62 0
-104 -398 0
-104 62 0
105 -413 7 0
-105 413 0
-105 -7 0
-106 -397 107 0
-106 397 111 114 0
106 397 -114 0
106 -397 -107 0
106 397 -111 0
-107 108 110 0
-107 414 415 0
-107 415 110 0
-107 414 108 0
107 -415 -108 0
107 -414 -110 0
108 398 -109 0
-108 -398 0
-108 109 0
109 399 -46 0
-109 -399 0
-109 46 0
110 398 -74 0
-110 -398 0
-110 74 0
111 -398 -415 -113 0
111 398 -415 -112 0
-111 415 0
-111 -398 113 0
-111 398 112 0
112 -399 -36 0
112 399 -94 0
-112 399 94 0
-112 -399 36 0
113 399 -39 0
113 -399 -43 0
-113 -399 43 0
-113 399 39 0
114 398 -414 -115 0
114 -398 -414 -73 0
-114 414 0
-114 -398 73 0
-114 398 115 0
115 -399 -21 0
115 399 -83 0
-115 399 83 0
-115 -399 21 0
-116 -144 147 0
-116 117 126 147 0
116 -147 0
116 -117 144 0
116 -126 144 0
117 398 -403 -118 0
117 -398 -403 -90 0
-117 403 0
-117 -398 90 0
-117 398 118 0
118 399 -119 0
118 -399 -123 0
-118 -399 123 0
-118 399 119 0
119 400 -122 0
119 -400 -120 0
119 400 -121 0
-119 -400 120 0
-119 400 121 122 0
-120 -401 406 0
-120 401 405 0
120 401 -405 0
120 -401 -406 0
121 401 -403 0
-121 -401 0
-121 403 0
122 -401 -404 0
-122 401 0
-122 404 0
123 -400 -125 0
123 400 -124 0
-123 400 124 0
-123 -400 125 0
-124 -401 408 0
-124 401 407 0
124 401 -407 0
124 -401 -408 0
-125 -401 410 0
-125 401 409 0
125 401 -409 0
125 -401 -410 0
-126 397 127 136 140 0
126 -140 0
126 -136 0
126 -397 0
126 -127 0
127 398 -402 -128 0
127 -398 -402 -79 0
-127 402 0
-127 398 128 0
-127 -398 79 0
-128 399 129 0
-128 -399 133 0
128 -399 -133 0
128 399 -129 0
-129 -400 132 0
-129 400 130 131 0
129 400 -130 0
129 -400 -132 0
129 400 -131 0
130 -401 -403 0
-130 401 0
-130 403 0
131 401 -402 0
-131 -401 0
-131 402 0
-132 -401 405 0
-132 401 404 0
132 401 -404 0
132 -401 -405 0
133 -400 -135 0
133 400 -134 0
-133 400 134 0
-133 -400 135 0
-134 -401 407 0
-134 401 406 0
134 401 -406 0
134 -401 -407 0
-135 -401 409 0
-135 401 408 0
135 401 -408 0
135 -401 -409 0
136 398 -404 -137 0
136 -398 -404 -87 0
-136 404 0
-136 398 137 0
-136 -398 87 0
-137 399 138 0
-137 -399 139 0
137 -399 -139 0
137 399 -138 0
-138 400 132 0
-138 -400 134 0
138 -400 -134 0
138 400 -132 0
139 400 -135 0
139 -400 -81 0
-139 -400 81 0
-139 400 135 0
140 398 -405 -141 0
140 -398 -405 -102 0
-140 405 0
-140 398 141 0
-140 -398 102 0
-141 399 142 0
-141 -399 143 0
141 -399 -143 0
141 399 -142 0
-142 400 120 0
-142 -400 124 0
142 -400 -124 0
142 400 -120 0
143 400 -125 0
143 -400 -92 0
-143 -400 92 0
-143 400 125 0
-144 7 145 0
-144 -403 7 -34 0
144 -7 0
144 403 -145 0
144 34 -145 0
145 -397 19 146 0
145 -397 402 146 0
-145 -146 0
-145 397 0
-145 -402 -19 0
-146 60 65 0
-146 404 405 0
-146 405 65 0
-146 404 60 0
146 -405 -60 0
146 -404 -65 0
147 -397 -72 -150 0
147 397 -148 -150 0
-147 150 0
-147 -397 72 0
-147 397 148 0
148 -398 -115 0
148 398 -149 0
-148 398 149 0
-148 -398 115 0
149 -399 -80 0
149 399 -133 0
-149 399 133 0
-149 -399 80 0
150 -406 7 0
-150 406 0
-150 -7 0
-151 152 168 173 0
-151 152 168 174 0
151 -152 0
151 -168 0
151 -173 -174 0
152 7 -153 0
152 7 -164 0
152 7 -160 0
-152 -7 0
-152 153 160 164 0
153 -397 -408 -157 0
153 397 -408 -154 0
-153 408 0
-153 -397 157 0
-153 397 154 0
-154 398 155 0
-154 -398 156 0
154 -398 -156 0
154 398 -155 0
-155 399 139 0
-155 -399 88 0
155 -399 -88 0
155 399 -139 0
156 -399 -67 0
156 399 -89 0
-156 399 89 0
-156 -399 67 0
157 398 -158 0
157 -398 -159 0
-157 -398 159 0
-157 398 158 0
158 399 -68 0
158 -399 -70 0
-158 -399 70 0
-158 399 68 0
159 399 -71 0
-159 -399 0
-159 71 0
160 -397 -407 -163 0
160 397 -407 -161 0
-160 407 0
-160 -397 163 0
-160 397 161 0
-161 -398 112 0
-161 398 162 0
161 -398 -112 0
161 398 -162 0
-162 399 123 0
-162 -399 91 0
162 -399 -91 0
162 399 -123 0
163 -398 -109 0
163 398 -113 0
-163 398 113 0
-163 -398 109 0
164 -397 -409 -167 0
164 397 -409 -165 0
-164 409 0
-164 -397 167 0
-164 397 165 0
-165 -398 54 0
-165 398 166 0
165 -398 -54 0
165 398 -166 0
-166 399 143 0
-166 -399 103 0
166 -399 -103 0
166 399 -143 0
167 398 -51 0
167 -398 -58 0
-167 -398 58 0
-167 398 51 0
-168 -6 0
-168 -398 169 0
-168 169 171 0
168 6 -169 0
168 398 6 -171 0
-169 163 170 0
-169 423 170 0
169 -170 0
169 -423 -163 0
-170 425 157 0
-170 424 167 0
-170 157 167 0
-170 424 425 0
170 -424 -157 0
170 -425 -167 0
-171 69 172 0
-171 428 172 0
171 -172 0
171 -428 -69 0
-172 427 27 0
-172 426 42 0
-172 27 42 0
-172 426 427 0
172 -426 -27 0
172 -427 -42 0
-173 397 -398 158 0
-173 397 398 156 0
173 -397 0
173 -398 -158 0
173 398 -156 0
174 397 -416 7 0
174 -416 7 -175 0
-174 -7 0
-174 416 0
-174 -397 175 0
175 398 -159 0
-175 -398 0
-175 159 0
176 177 310 316 -322 0
-176 322 0
-176 -316 0
-176 -177 0
-176 -310 0
-177 -7 178 237 0
-177 178 203 237 0
177 -237 0
177 -178 0
177 7 -203 0
178 397 -179 -202 0
178 -397 -194 -202 0
-178 202 0
-178 -397 194 0
-178 397 179 0
179 398 -180 0
179 -398 -187 0
-179 -398 187 0
-179 398 180 0
180 399 -181 0
180 -399 -184 0
-180 -399 184 0
-180 399 181 0
181 -400 -183 0
181 400 -182 0
-181 400 182 0
-181 -400 183 0
-182 401 425 0
-182 -401 424 0
182 -401 -424 0
182 401 -425 0
-183 401 423 0
-183 -401 422 0
183 -401 -422 0
183 401 -423 0
184 -400 -186 0
184 400 -185 0
-184 400 185 0
-184 -400 186 0
-185 401 421 0
-185 -401 420 0
185 -401 -420 0
185 401 -421 0
-186 401 419 0
-186 -401 418 0
186 -401 -418 0
186 401 -419 0
187 399 -188 0
187 -399 -191 0
-187 -399 191 0
-187 399 188 0
188 -400 -190 0
188 400 -189 0
-188 400 189 0
-188 -400 190 0
-189 401 417 0
-189 -401 416 0
189 -401 -416 0
189 401 -417 0
-190 401 415 0
-190 -401 414 0
190 -401 -414 0
190 401 -415 0
191 -400 -193 0
191 400 -192 0
-191 400 192 0
-191 -400 193 0
-192 401 413 0
-192 -401 412 0
192 -401 -412 0
192 401 -413 0
-193 401 411 0
-193 -401 410 0
193 -401 -410 0
193 401 -411 0
194 398 -195 0
-194 -398 0
-194 195 0
195 399 -196 0
195 -399 -199 0
-195 -399 199 0
-195 399 196 0
196 -400 -198 0
196 400 -197 0
-196 400 197 0
-196 -400 198 0
-197 401 409 0
-197 -401 408 0
197 -401 -408 0
197 401 -409 0
-198 401 407 0
-198 -401 406 0
198 -401 -406 0
198 401 -407 0
199 -400 -201 0
199 400 -200 0
-199 400 200 0
-199 -400 201 0
-200 401 405 0
-200 -401 404 0
200 -401 -404 0
200 401 -405 0
-201 401 403 0
-201 -401 402 0
201 -401 -402 0
201 401 -403 0
202 -425 7 0
-202 425 0
-202 -7 0
-203 -397 -398 0
-203 397 204 0
-203 -397 227 0
203 397 -204 0
203 -397 398 -227 0
-204 -398 205 0
-204 398 216 0
204 398 -216 0
204 -398 -205 0
-205 424 206 0
-205 423 209 0
-205 206 209 0
-205 423 424 0
205 -423 -206 0
205 -424 -209 0
206 399 -207 0
206 -399 -208 0
-206 -399 208 0
-206 399 207 0
207 -400 -192 0
207 400 -190 0
-207 400 190 0
-207 -400 192 0
208 -400 -197 0
208 400 -193 0
-208 400 193 0
-208 -400 197 0
209 399 -210 0
209 -399 -213 0
-209 -399 213 0
-209 399 210 0
210 -400 -212 0
210 400 -211 0
-210 400 211 0
-210 -400 212 0
-211 401 416 0
-211 -401 415 0
211 -401 -415 0
211 401 -416 0
-212 401 414 0
-212 -401 413 0
212 -401 -413 0
212 401 -414 0
213 -400 -215 0
213 400 -214 0
-213 400 214 0
-213 -400 215 0
-214 401 412 0
-214 -401 411 0
214 -401 -411 0
214 401 -412 0
-215 401 410 0
-215 -401 409 0
215 -401 -409 0
215 401 -410 0
-216 424 217 0
-216 423 220 0
-216 217 220 0
-216 423 424 0
216 -423 -217 0
216 -424 -220 0
217 399 -218 0
217 -399 -219 0
-217 -399 219 0
-217 399 218 0
218 -400 -185 0
218 400 -183 0
-218 400 183 0
-218 -400 185 0
219 -400 -189 0
219 400 -186 0
-219 400 186 0
-219 -400 189 0
220 399 -221 0
220 -399 -224 0
-220 -399 224 0
-220 399 221 0
221 -400 -223 0
221 400 -222 0
-221 400 222 0
-221 -400 223 0
-222 401 424 0
-222 -401 423 0
222 -401 -423 0
222 401 -424 0
-223 401 422 0
-223 -401 421 0
223 -401 -421 0
223 401 -422 0
224 -400 -226 0
224 400 -225 0
-224 400 225 0
-224 -400 226 0
-225 401 420 0
-225 -401 419 0
225 -401 -419 0
225 401 -420 0
-226 401 418 0
-226 -401 417 0
226 -401 -417 0
226 401 -418 0
-227 424 228 0
-227 423 231 0
-227 228 231 0
-227 423 424 0
227 -423 -228 0
227 -424 -231 0
228 399 -229 0
228 -399 -230 0
-228 -399 230 0
-228 399 229 0
229 -400 -200 0
229 400 -198 0
-229 400 198 0
-229 -400 200 0
230 400 401 -403 0
230 400 -401 -402 0
-230 -400 0
-230 -401 402 0
-230 401 403 0
231 399 -232 0
231 -399 -235 0
-231 -399 235 0
-231 399 232 0
232 -400 -234 0
232 400 -233 0
-232 400 233 0
-232 -400 234 0
-233 401 408 0
-233 -401 407 0
233 -401 -407 0
233 401 -408 0
-234 401 406 0
-234 -401 405 0
234 -401 -405 0
234 401 -406 0
235 400 -236 0
235 -400 401 -402 0
-235 -400 -401 0
-235 400 236 0
-235 -400 402 0
-236 401 404 0
-236 -401 403 0
236 -401 -403 0
236 401 -404 0
-237 238 293 298 0
-237 238 297 298 0
237 -238 0
237 -298 0
237 -293 -297 0
-238 239 266 270 276 0
238 -266 0
238 -276 0
238 -239 0
238 -270 0
239 7 240 249 -257 0
-239 257 0
-239 -249 0
-239 -7 0
-239 -240 0
240 -397 -398 0
240 -398 241 244 0
-240 398 0
-240 397 -241 0
-240 397 -244 0
-241 421 242 0
-241 420 243 0
-241 242 243 0
-241 420 421 0
241 -420 -242 0
241 -421 -243 0
242 399 -213 0
242 -399 -232 0
-242 -399 232 0
-242 399 213 0
243 399 -191 0
243 -399 -196 0
-243 -399 196 0
-243 399 191 0
-244 422 245 0
-244 419 246 0
-244 245 246 0
-244 419 422 0
244 -419 -245 0
244 -422 -246 0
245 399 -208 0
245 -399 -229 0
-245 -399 229 0
-245 399 208 0
246 399 -247 0
246 -399 -248 0
-246 -399 248 0
-246 399 247 0
247 -400 -214 0
247 400 -212 0
-247 400 212 0
-247 -400 214 0
248 -400 -233 0
248 400 -215 0
-248 400 215 0
-248 -400 233 0
249 -397 250 252 0
249 -397 422 252 0
-249 -252 0
-249 397 0
-249 -422 -250 0
250 399 -251 0
250 -399 400 -131 0
-250 -399 -400 0
-250 399 251 0
-250 -399 131 0
251 -400 -236 0
251 400 -234 0
-251 400 234 0
-251 -400 236 0
-252 253 254 0
-252 420 254 0
252 -254 0
252 -420 -253 0
253 399 -235 0
-253 -399 0
-253 235 0
-254 255 256 0
-254 419 421 0
-254 421 256 0
-254 419 255 0
254 -421 -255 0
254 -419 -256 0
255 399 -199 0
-255 -399 0
-255 199 0
256 399 -230 0
-256 -399 0
-256 230 0
-257 421 258 263 0
-257 258 262 263 0
257 -263 0
257 -258 0
257 -421 -262 0
-258 397 398 259 0
-258 397 398 422 0
258 -397 0
258 -398 0
258 -422 -259 0
259 399 -260 0
259 -399 -261 0
-259 -399 261 0
-259 399 260 0
260 -400 -225 0
260 400 -223 0
-260 400 223 0
-260 -400 225 0
261 400 -226 0
261 -400 -211 0
-261 -400 211 0
-261 400 226 0
262 399 -184 0
262 -399 -188 0
-262 -399 188 0
-262 399 184 0
-263 264 265 0
-263 419 420 0
-263 420 265 0
-263 419 264 0
263 -420 -264 0
263 -419 -265 0
264 -399 -210 0
264 399 -224 0
-264 399 224 0
-264 -399 210 0
265 -399 -207 0
265 399 -219 0
-265 399 219 0
-265 -399 207 0
-266 -6 0
-266 -398 268 0
-266 267 268 0
266 6 -268 0
266 398 6 -267 0
-267 405 253 0
-267 404 255 0
-267 253 255 0
-267 404 405 0
267 -404 -253 0
267 -405 -255 0
-268 -398 0
-268 403 269 0
-268 256 269 0
268 398 -269 0
268 398 -403 -256 0
269 399 400 401 -402 0
-269 402 0
-269 -401 0
-269 -399 0
-269 -400 0
270 -397 -271 -275 0
270 397 -272 -275 0
-270 275 0
-270 -397 271 0
-270 397 272 0
271 398 -269 0
-271 -398 0
-271 269 0
272 398 -273 0
272 -398 -274 0
-272 -398 274 0
-272 398 273 0
273 -399 -247 0
273 399 -261 0
-273 399 261 0
-273 -399 247 0
274 399 -248 0
274 -399 -251 0
-274 -399 251 0
-274 399 248 0
275 -418 7 0
-275 418 0
-275 -7 0
276 6 -285 0
276 6 -277 0
276 6 -280 0
-276 -6 0
-276 277 280 285 0
-277 278 279 0
-277 410 415 0
-277 415 279 0
-277 410 278 0
277 -415 -278 0
277 -410 -279 0
278 398 -206 0
278 -398 -228 0
-278 -398 228 0
-278 398 206 0
279 -398 -269 0
279 398 -274 0
-279 398 274 0
-279 -398 269 0
-280 281 283 284 0
-280 417 281 283 0
280 -283 0
280 -281 0
280 -417 -284 0
281 398 -282 0
281 398 -406 -250 0
-281 -398 0
-281 406 282 0
-281 250 282 0
-282 408 228 0
-282 407 231 0
-282 228 231 0
-282 407 408 0
282 -407 -228 0
282 -408 -231 0
283 -409 -194 0
-283 409 0
-283 194 0
284 398 -187 0
284 -398 -195 0
-284 -398 195 0
-284 398 187 0
-285 416 287 290 0
-285 286 287 290 0
285 -290 0
285 -287 0
285 -416 -286 0
286 398 -209 0
286 -398 -231 0
-286 -398 231 0
-286 398 209 0
-287 413 288 0
-287 412 289 0
-287 288 289 0
-287 412 413 0
287 -412 -288 0
287 -413 -289 0
288 398 -242 0
288 -398 -253 0
-288 -398 253 0
-288 398 242 0
289 398 -243 0
289 -398 -255 0
-289 -398 255 0
-289 398 243 0
-290 414 291 0
-290 411 292 0
-290 291 292 0
-290 411 414 0
290 -411 -291 0
290 -414 -292 0
291 398 -245 0
291 -398 -256 0
-291 -398 256 0
-291 398 245 0
292 398 -246 0
292 -398 -250 0
-292 -398 250 0
-292 398 246 0
-293 397 -398 273 0
-293 397 398 294 0
293 -397 0
293 -398 -273 0
293 398 -294 0
294 -399 -260 0
294 399 -295 0
-294 399 295 0
-294 -399 260 0
295 400 -296 0
295 -400 -222 0
-295 -400 222 0
-295 400 296 0
-296 401 426 0
-296 -401 425 0
296 -401 -425 0
296 401 -426 0
297 397 -426 7 0
297 -426 7 -279 0
-297 -7 0
-297 426 0
-297 -397 279 0
298 397 14 -299 0
298 -397 14 -309 0
-298 -14 0
-298 -397 309 0
-298 397 299 0
-299 -398 300 0
-299 398 303 306 0
299 398 -306 0
299 -398 -300 0
299 398 -303 0
-300 301 302 0
-300 264 265 0
-300 265 302 0
-300 264 301 0
300 -265 -301 0
300 -264 -302 0
301 -427 8 0
-301 427 0
-301 -8 0
302 -428 8 0
-302 428 0
-302 -8 0
303 399 -302 -304 0
303 -399 -221 -302 0
-303 302 0
-303 -399 221 0
-303 399 304 0
304 400 -305 0
304 -400 -296 0
-304 -400 296 0
-304 400 305 0
-305 401 428 0
-305 -401 427 0
305 -401 -427 0
305 401 -428 0
306 399 -301 -307 0
306 -399 -218 -301 0
-306 301 0
-306 -399 218 0
-306 399 307 0
307 400 -308 0
307 -400 -182 0
-307 -400 182 0
-307 400 308 0
-308 401 427 0
-308 -401 426 0
308 -401 -426 0
308 401 -427 0
-309 301 302 0
-309 288 291 0
-309 291 302 0
-309 288 301 0
309 -291 -301 0
309 -288 -302 0
310 -397 -289 -315 0
310 397 -311 -315 0
-310 315 0
-310 -397 289 0
-310 397 311 0
311 -398 -262 0
311 398 -312 0
-311 398 312 0
-311 -398 262 0
312 -399 -181 0
312 399 -313 0
-312 399 313 0
-312 -399 181 0
313 400 -314 0
313 -400 -308 0
-313 -400 308 0
-313 400 314 0
-314 401 429 0
-314 -401 428 0
314 -401 -428 0
314 401 -429 0
315 -429 7 0
-315 429 0
-315 -7 0
316 -430 7 -317 0
-316 430 0
-316 -7 0
-316 317 0
-317 -397 292 0
-317 397 318 0
317 -397 -292 0
317 397 -318 0
-318 -398 259 0
-318 398 319 0
318 -398 -259 0
318 398 -319 0
-319 -399 295 0
-319 399 320 0
319 -399 -295 0
319 399 -320 0
-320 -400 305 0
-320 400 321 0
320 400 -321 0
320 -400 -305 0
-321 401 430 0
-321 -401 429 0
321 -401 -429 0
321 401 -430 0
322 323 -329 0
-322 -323 0
-322 329 0
323 -431 7 -324 0
-323 431 0
-323 -7 0
-323 324 0
-324 -397 278 0
-324 397 325 0
324 -397 -278 0
324 397 -325 0
-325 -398 217 0
-325 398 326 0
325 -398 -217 0
325 398 -326 0
-326 -399 307 0
-326 399 327 0
326 -399 -307 0
326 399 -327 0
-327 -400 314 0
-327 400 328 0
327 400 -328 0
327 -400 -314 0
-328 401 431 0
-328 -401 430 0
328 -401 -430 0
328 401 -431 0
329 330 -337 0
-329 -330 0
-329 337 0
330 -432 7 -331 0
-330 432 0
-330 -7 0
-330 331 0
-331 -397 286 0
-331 397 332 0
331 -397 -286 0
331 397 -332 0
-332 -398 220 0
-332 398 333 0
332 -398 -220 0
332 398 -333 0
-333 -399 304 0
-333 399 334 0
333 -399 -304 0
333 399 -334 0
-334 -400 321 0
-334 400 335 336 0
334 400 -335 0
334 -400 -321 0
334 400 -336 0
335 -401 -431 0
-335 401 0
-335 431 0
336 401 -432 0
-336 -401 0
-336 432 0
337 -397 338 0
-337 397 0
-337 -338 0
338 -433 7 -339 0
-338 433 0
-338 -7 0
-338 339 0
-339 -397 284 0
-339 397 340 0
339 -397 -284 0
339 397 -340 0
-340 -398 180 0
-340 398 341 0
340 -398 -180 0
340 398 -341 0
-341 -399 313 0
-341 399 342 0
341 -399 -313 0
341 399 -342 0
-342 -400 328 0
-342 400 343 63 0
342 400 -343 0
342 -400 -328 0
342 400 -63 0
343 -401 -432 0
-343 401 0
-343 432 0
-344 345 359 361 0
-344 345 -359 -361 0
344 -345 0
344 -359 361 0
344 359 -361 0
-345 346 347 -350 -356 0
-345 -346 -347 -350 -356 0
-345 346 347 350 356 0
-345 -346 -347 350 356 0
345 346 -347 0
345 -346 347 0
345 350 -356 0
345 -350 356 0
346 -398 4 0
-346 398 0
-346 -4 0
347 177 310 316 -348 0
-347 348 0
-347 -316 0
-347 -177 0
-347 -310 0
348 323 330 -349 0
-348 349 0
-348 -330 0
-348 -323 0
349 -398 338 0
349 -397 -338 0
-349 398 338 0
-349 397 -338 0
350 4 351 352 -353 0
-350 353 0
-350 -352 0
-350 -4 0
-350 -351 0
351 -429 6 -104 0
-351 429 0
-351 -6 0
-351 104 0
352 -430 6 -110 0
-352 430 0
-352 -6 0
-352 110 0
353 -400 354 0
-353 400 0
-353 -354 0
-354 -6 355 0
-354 175 355 0
-354 432 355 0
354 -355 0
354 -432 6 -175 0
355 -431 6 -108 0
-355 431 0
-355 -6 0
-355 108 0
356 177 310 316 -357 0
-356 357 0
-356 -316 0
-356 -177 0
-356 -310 0
357 323 330 -358 0
357 323 -330 -349 0
-357 -323 0
-357 -330 349 0
-357 330 358 0
358 -400 338 0
358 -399 -338 0
-358 400 338 0
-358 399 -338 0
359 4 351 352 -360 0
-359 360 0
-359 -352 0
-359 -4 0
-359 -351 0
360 -401 354 0
-360 401 0
-360 -354 0
361 177 310 316 -362 0
-361 362 0
-361 -316 0
-361 -177 0
-361 -310 0
-362 -323 329 0
-362 323 363 0
362 -323 -329 0
362 323 -363 0
-363 330 365 0
-363 -330 364 0
363 -330 -364 0
363 330 -365 0
364 -399 338 0
364 -398 -338 0
-364 399 338 0
-364 398 -338 0
365 -401 338 0
365 -400 -338 0
-365 401 338 0
-365 400 -338 0
366 367 -368 0
366 -367 368 0
-366 -367 -368 0
-366 367 368 0
367 -399 4 351 0
-367 399 0
-367 -4 0
-367 -351 0
368 177 310 316 -369 0
-368 369 0
-368 -316 0
-368 -177 0
-368 -310 0
369 323 330 -364 0
369 323 -330 -337 0
-369 -323 0
-369 -330 337 0
-369 330 364 0
-434 0
2 0

